p cnf 16 33
-1 -2 0
-1 -6 0
-1 -10 -3 0
-1 -10 -7 0
-1 -10 -11 0
-1 -10 -15 0
-1 -14 -3 0
-1 -14 -7 -4 0
-1 -14 -7 -8 0
-1 -14 -7 -12 0
-1 -14 -7 -16 0
-1 -14 -11 0
-1 -14 -15 0
-5 -2 0
-5 -6 0
-5 -10 0
-5 -14 -3 -4 0
-5 -14 -3 -8 0
-5 -14 -3 -16 0
-5 -14 -7 0
-5 -14 -11 0
-5 -14 -15 0
-9 -2 0
-9 -6 0
-9 -10 0
-9 -14 0
-13 -2 0
-13 -6 -3 0
-13 -6 -7 0
-13 -6 -11 0
-13 -6 -15 0
-13 -10 0
-13 -14 0
